Using license file /Library/gurobi/gurobi.lic
Changed value of parameter MIPFocus to 3
   Prev: 0  Min: 0  Max: 3  Default: 0
Gurobi Optimizer version 9.1.2 build v9.1.2rc0 (mac64)
Thread count: 8 physical cores, 8 logical processors, using up to 8 threads
Optimize a model with 12029 rows, 2308 columns and 25348 nonzeros
Model fingerprint: 0x169e7f47
Model has 420 general constraints
Variable types: 0 continuous, 2308 integer (1588 binary)
Coefficient statistics:
  Matrix range     [1e-05, 1e+00]
  Objective range  [1e+00, 1e+00]
  Bounds range     [1e+00, 1e+00]
  RHS range        [1e+00, 1e+04]

User MIP start did not produce a new incumbent solution

Presolve removed 3572 rows and 944 columns
Presolve time: 0.10s
Presolved: 8457 rows, 1364 columns, 17856 nonzeros
Variable types: 0 continuous, 1364 integer (824 binary)
Presolve removed 540 rows and 540 columns
Presolved: 7917 rows, 824 columns, 16776 nonzeros


Root relaxation: objective 6.000000e+01, 1453 iterations, 0.09 seconds
Another try with MIP start

    Nodes    |    Current Node    |     Objective Bounds      |     Work
 Expl Unexpl |  Obj  Depth IntInf | Incumbent    BestBd   Gap | It/Node Time

     0     0   60.00000    0  325          -   60.00000      -     -    0s
     0     0   60.00000    0  193          -   60.00000      -     -    0s
     0     0   60.00000    0  221          -   60.00000      -     -    0s
     0     0   60.00000    0  301          -   60.00000      -     -    1s
     0     0   60.00000    0  301          -   60.00000      -     -    1s
     0     2   60.00000    0  260          -   60.00000      -     -    2s
   396   223   60.89492    6  353          -   60.33333      -   353    5s
H  675   380                      64.0000000   60.43762  5.57%   308    6s
H  684   357                      63.0000000   60.43762  4.07%   306    6s
   937   452     cutoff   10        63.00000   60.53643  3.91%   313   10s
  1481   796   60.66667   12  301   63.00000   60.66667  3.70%   274   18s
  1486   799   61.83456   18  286   63.00000   60.66667  3.70%   273   20s
  1489   801   60.73218   18  331   63.00000   60.66667  3.70%   272   25s
  1498   809   60.69722    8  346   63.00000   60.66667  3.70%   287   30s
  1503   811   60.66667   25  347   63.00000   60.66667  3.70%  29.7   36s
  1520   822   60.66667   28  429   63.00000   60.66667  3.70%  40.0   40s
  1748   957   60.66667   34  414   63.00000   60.66667  3.70%   157   46s
  2039  1115 infeasible   50        63.00000   60.66667  3.70%   234   51s
  2269  1189 infeasible   39        63.00000   60.66667  3.70%   282   55s
  2355  1166 infeasible   38        63.00000   60.66667  3.70%   317   61s
  2453  1200   60.66667   45  532   63.00000   60.66667  3.70%   369   66s
  2618  1237   60.66667   39  469   63.00000   60.66667  3.70%   432   72s
  2734  1248   60.66667   32  365   63.00000   60.66667  3.70%   474   77s
  2780  1249 infeasible   35        63.00000   60.66667  3.70%   494   84s
  2805  1251     cutoff   36        63.00000   60.66667  3.70%   511   85s
  2837  1242 infeasible   38        63.00000   60.66667  3.70%   526   90s
  2927  1225 infeasible   41        63.00000   60.66667  3.70%   559  113s
  2965  1211     cutoff   38        63.00000   60.66667  3.70%   572  156s
  3070  1206 infeasible   35        63.00000   60.66667  3.70%   593  160s
  3149  1199   60.66667   36  427   63.00000   60.66667  3.70%   621  177s
  3286  1177 infeasible   53        63.00000   60.66667  3.70%   641  202s
  3344  1168   60.73041   39  351   63.00000   60.66667  3.70%   654  210s
  3405  1154   60.66667   49  454   63.00000   60.66667  3.70%   665  225s
  3480  1112 infeasible   43        63.00000   60.66667  3.70%   683  286s
  3557  1097     cutoff   38        63.00000   60.66667  3.70%   690  309s
  3612  1077 infeasible   37        63.00000   60.66667  3.70%   704  356s
  3700  1077     cutoff   39        63.00000   60.66667  3.70%   713  363s
  3726  1061 infeasible   41        63.00000   60.66667  3.70%   719  365s
  3798  1044   60.66667   42  463   63.00000   60.66667  3.70%   729  419s
  3876  1015 infeasible   43        63.00000   60.66667  3.70%   737  424s
  3998  1021 infeasible   38        63.00000   60.66667  3.70%   738  427s
  4084  1021   61.06589   42  382   63.00000   60.66667  3.70%   747  479s
  4162   981     cutoff   42        63.00000   60.66667  3.70%   754  518s
  4266  1000   60.66667   46  441   63.00000   60.66667  3.70%   759  600s
  4286   972     cutoff   41        63.00000   60.66667  3.70%   762  692s
  4405   971   60.66667   47  328   63.00000   60.66667  3.70%   765  785s
  4543  1019   61.05556   41  285   63.00000   60.66667  3.70%   769  878s
  4647   989   61.00794   37  352   63.00000   60.66667  3.70%   781  967s
  4785   990   60.89594   47  439   63.00000   60.66667  3.70%   787 1056s
  4943   981     cutoff   48        63.00000   60.66667  3.70%   785 1102s
  5129   985   61.64757   39  284   63.00000   60.71785  3.62%   780 1215s
  5329  1026   61.18544   40  438   63.00000   60.80765  3.48%   775 1377s
  5534  1051   60.86582   39  502   63.00000   60.83492  3.44%   774 1564s
  5769  1168     cutoff   84        63.00000   60.94419  3.26%   768 1773s
  5856  1272 infeasible   40        63.00000   60.97707  3.21%   765 1965s
  6186  1482 infeasible   37        63.00000   61.00794  3.16%   747 2153s
  6585  1657   61.36190   36  248   63.00000   61.00794  3.16%   721 2327s
  7008  1856   61.06309   42  316   63.00000   61.05556  3.09%   694 2526s
  7582  2021   61.14118   60  197   63.00000   61.07342  3.06%   659 2767s
  8114  2140   61.49990   56  221   63.00000   61.12534  2.98%   635 3014s
  8758  2281     cutoff   47        63.00000   61.18140  2.89%   605 3222s
  9364  2345   61.21789   57   97   63.00000   61.21786  2.83%   579 3478s
 10137  2475     cutoff   35        63.00000   61.25395  2.77%   551 3784s
 10539  2262     cutoff   41        63.00000   61.25395  2.77%   541 9640s
 11417  2245   61.38157   54  339   63.00000   61.37931  2.57%   512 10333s
 12318  2111   61.75690   42  264   63.00000   61.45919  2.45%   486 10592s
 13355  1950     cutoff   62        63.00000   61.56703  2.27%   460 10778s
 14359  1888     cutoff   45        63.00000   61.62642  2.18%   435 10906s
 15002  1539     cutoff   53        63.00000   61.70588  2.05%   421 11139s
 17071  1165     cutoff   54        63.00000   61.78252  1.93%   378 11357s
 18859   535     cutoff   56        63.00000   61.85184  1.82%   350 11585s
 20173     0   61.93453   50  142   63.00000   61.88423  1.77%   331 11748s

Cutting planes:
  Gomory: 16
  Cover: 195
  Projected implied bound: 415
  Clique: 98
  MIR: 1239
  StrongCG: 199
  Flow cover: 247
  Inf proof: 8
  Zero half: 230
  Network: 6
  RLT: 939
  Relax-and-lift: 2292

Explored 21008 nodes (7175002 simplex iterations) in 11748.72 seconds
Thread count was 8 (of 8 available processors)

Solution count 2: 63 64 

Optimal solution found (tolerance 1.00e-04)
Best objective 6.300000000000e+01, best bound 6.300000000000e+01, gap 0.0000%
The optimal solution is founded.
Warning: variable name "goods_(1, 1, 1, 1)" has a space
Warning: to let Gurobi read it back, use rlp format

Optimal objective value: 63.0
(2, 1):180.0 (1, 3):630.0 (3, 1):630.0 (3, 3):630.0 (2, 1):630.0 (3, 3):200.0	
(1, 2):180.0 (1, 3):630.0	(3, 1):630.0 (3, 3):630.0 (2, 1):630.0 (3, 3):200.0	
(1, 2):180.0 (1, 3):630.0	(3, 1):315.0 (3, 2):315.0 (3, 3):630.0 (2, 1):630.0	(3, 3):200.0	
(1, 3):180.0 (1, 3):630.0	(3, 2):630.0 (3, 4):630.0 (2, 1):630.0 (1, 3):200.0	
(1, 3):180.0 (1, 3):630.0	(3, 2):630.0 (3, 4):630.0 (2, 1):135.0 (2, 2):495.0	(1, 3):200.0	
(1, 3):180.0 (1, 3):630.0	(3, 2):630.0 (3, 4):630.0 (2, 2):630.0 (1, 3):200.0	
(1, 4):180.0 (1, 3):630.0	(3, 2):630.0 (3, 4):630.0 (2, 2):630.0 (1, 4):200.0	
(1, 4):180.0 (1, 3):630.0	(3, 2):630.0 (3, 4):630.0 (2, 2):630.0 (1, 4):200.0	
(1, 4):180.0 (1, 3):175.0	(1, 4):455.0 (3, 2):630.0 (3, 4):630.0 (2, 2):630.0	(1, 4):200.0	
(1, 4):180.0 (1, 4):630.0	(3, 2):630.0 (3, 4):630.0 (2, 2):630.0 (1, 4):200.0	